c defined variables: 13 25 29 33 37 41 45 49 53 57 61 65 69 73 77 81 85 89 93 97 101 105 109 113 126 136 140 144 148 152 156 160 164 168 172 176 180 184 188 192 199 203 227 239 247 264 265 267 268 269 271 272 274 275 276 277 279 280 282 283 284 286 287 289 290 291 292 293 295 296 298 301 303 304 306 307 308 309 311 312 315 317 321 322 323 324 325 326 329 330 332 333 334 337 338 340 343 344 346 348 350 351 353 354 355 356 358 359 361 362 363 365 368 369 370 371 372 373 374 375 376 377 378 379 380 381 382 383 384 385 386 387 388 389 390 391 392 393 394 395 396 397 398 399 400 401 402 403 404 405 406 407 408 409 410 412 413 414 415 416 417 418 419 420 421 422 424 425 426 427 428 429 430 431 432 433 434 435 436 437 438 439 441 442 443 444 445 446 447 448 449 450 451 452 453 454 455 456 457 458 459 460 461 462 463 464 465 466 467 468 469 470 471 472 474 
p cnf 1615 1970
a 242 237 230 225 68 72 56 64 48 60 40 52 32 44 226 238 250 297 302 305 310 411 316 320 423 257 253 260 357 352 342 336 349 345 328 246 440 331 20 36 4 8 24 16 1 28 12 367 5 360 364 21 2 9 17 245 191 183 167 171 179 175 151 155 159 163 288 294 266 270 263 281 285 273 278 198 202 187 195 215 218 206 211 233 222 104 96 100 92 88 84 76 80 112 108 122 135 129 132 116 139 125 119 147 143 0
e 3 6 7 10 11 14 15 18 19 22 23 26 27 30 31 34 35 38 39 42 43 46 47 50 51 54 55 58 59 62 63 66 67 70 71 74 75 78 79 82 83 86 87 90 91 94 95 98 99 102 103 106 107 110 111 114 115 117 118 120 121 123 124 127 128 130 131 133 134 137 138 141 142 145 146 149 150 153 154 157 158 161 162 165 166 169 170 173 174 177 178 181 182 185 186 189 190 193 194 196 197 200 201 204 205 208 209 210 212 213 214 216 217 219 220 221 223 224 228 229 231 232 235 236 240 241 243 244 248 249 251 252 255 256 258 259 261 262 300 314 319 339 341 347 366 473 13 25 29 33 37 41 45 49 53 57 61 65 69 73 77 81 85 89 93 97 101 105 109 113 126 136 140 144 148 152 156 160 164 168 172 176 180 184 188 192 199 203 227 239 247 264 265 267 268 269 271 272 274 275 276 277 279 280 282 283 284 286 287 289 290 291 292 293 295 296 298 301 303 304 306 307 308 309 311 312 315 317 321 322 323 324 325 326 329 330 332 333 334 337 338 340 343 344 346 348 350 351 353 354 355 356 358 359 361 362 363 365 368 369 370 371 372 373 374 375 376 377 378 379 380 381 382 383 384 385 386 387 388 389 390 391 392 393 394 395 396 397 398 399 400 401 402 403 404 405 406 407 408 409 410 412 413 414 415 416 417 418 419 420 421 422 424 425 426 427 428 429 430 431 432 433 434 435 436 437 438 439 441 442 443 444 445 446 447 448 449 450 451 452 453 454 455 456 457 458 459 460 461 462 463 464 465 466 467 468 469 470 471 472 474 1415 1416 1417 1418 1419 1420 1421 1422 1423 1424 1425 1426 1427 1428 1429 1430 1431 1432 1433 1434 1435 1436 1437 1438 1439 1440 1441 1442 1443 1444 1445 1446 1447 1448 1449 1450 1451 1452 1453 1454 1455 1456 1457 1458 1459 1460 1461 1462 1463 1464 1465 1466 1467 1468 1469 1470 1471 1472 1473 1474 1475 1476 1477 1478 1479 1480 1481 1482 1483 1484 1485 1486 1487 1488 1489 1490 1491 1492 1493 1494 1495 1496 1497 1498 1499 1500 1501 1502 1503 1504 1505 1506 1507 1508 1509 1510 1511 1512 1513 1514 1515 1516 1517 1518 1519 1520 1521 1522 1523 1524 1525 1526 1527 1528 1529 1530 1531 1532 1533 1534 1535 1536 1537 1538 1539 1540 1541 1542 1543 1544 1545 1546 1547 1548 1549 1550 1551 1552 1553 1554 1555 1556 1557 1558 1559 1560 1561 1562 1563 1564 1565 1566 1567 1568 1569 1570 1571 1572 1573 1574 1575 1576 1577 1578 1579 1580 1581 1582 1583 1584 1585 1586 1587 1588 1589 1590 1591 1592 1593 1594 1595 1596 1597 1598 1599 1600 1601 1602 1603 1604 1605 1606 1607 1608 1609 1610 1611 1612 1613 1614 1615 0
d 254 2 440 0
d 299 5 195 21 9 0
d 313 411 2 0
d 207 21 17 0
d 327 242 237 233 250 245 0
d 318 5 215 9 0
d 335 260 257 253 9 17 0
d 234 230 222 225 423 2 0
1416 -13 0
-1416 13 0
1417 -25 0
-1417 25 0
1418 -29 0
-1418 29 0
1419 -33 0
-1419 33 0
1420 -37 0
-1420 37 0
1421 -41 0
-1421 41 0
1422 -45 0
-1422 45 0
1423 -49 0
-1423 49 0
1424 -53 0
-1424 53 0
1425 -57 0
-1425 57 0
1426 -61 0
-1426 61 0
1427 -65 0
-1427 65 0
1428 -69 0
-1428 69 0
1429 -73 0
-1429 73 0
1430 -77 0
-1430 77 0
1431 -81 0
-1431 81 0
1432 -85 0
-1432 85 0
1433 -89 0
-1433 89 0
1434 -93 0
-1434 93 0
1435 -97 0
-1435 97 0
1436 -101 0
-1436 101 0
1437 -105 0
-1437 105 0
1438 -109 0
-1438 109 0
1439 -113 0
-1439 113 0
1440 -126 0
-1440 126 0
1441 -136 0
-1441 136 0
1442 -140 0
-1442 140 0
1443 -144 0
-1443 144 0
1444 -148 0
-1444 148 0
1445 -152 0
-1445 152 0
1446 -156 0
-1446 156 0
1423 -160 0
-1423 160 0
1447 -164 0
-1447 164 0
1448 -168 0
-1448 168 0
1449 -172 0
-1449 172 0
1450 -176 0
-1450 176 0
1451 -180 0
-1451 180 0
1452 -184 0
-1452 184 0
1453 -188 0
-1453 188 0
1454 -192 0
-1454 192 0
1455 -199 0
-1455 199 0
1456 -203 0
-1456 203 0
1457 -227 0
-1457 227 0
1458 -239 0
-1458 239 0
1459 -247 0
-1459 247 0
1460 -264 0
-1460 264 0
1461 -265 0
-1461 265 0
1462 -267 0
-1462 267 0
1463 -268 0
-1463 268 0
-1464 -269 0
1464 269 0
1465 -271 0
-1465 271 0
1466 -272 0
-1466 272 0
1467 -274 0
-1467 274 0
1468 -275 0
-1468 275 0
-1469 -276 0
1469 276 0
-1470 -277 0
1470 277 0
1471 -279 0
-1471 279 0
1472 -280 0
-1472 280 0
1473 -282 0
-1473 282 0
1474 -283 0
-1474 283 0
-1475 -284 0
1475 284 0
-1476 -286 0
1476 286 0
1477 -287 0
-1477 287 0
1478 -289 0
-1478 289 0
1479 -290 0
-1479 290 0
-1480 -291 0
1480 291 0
-1481 -292 0
1481 292 0
-1483 -293 0
1483 293 0
1484 -295 0
-1484 295 0
1485 -296 0
-1485 296 0
1486 -298 0
-1486 298 0
-1487 -301 0
1487 301 0
1488 -303 0
-1488 303 0
1489 -304 0
-1489 304 0
1490 -306 0
-1490 306 0
1491 -307 0
-1491 307 0
-1492 -308 0
1492 308 0
-1493 -309 0
1493 309 0
1494 -311 0
-1494 311 0
1495 -312 0
-1495 312 0
-1496 -315 0
1496 315 0
1497 -317 0
-1497 317 0
1498 -321 0
-1498 321 0
1499 -322 0
-1499 322 0
-1500 -323 0
1500 323 0
-1501 -324 0
1501 324 0
-1502 -325 0
1502 325 0
-1503 -326 0
1503 326 0
1504 -329 0
-1504 329 0
1505 -330 0
-1505 330 0
1506 -332 0
-1506 332 0
1507 -333 0
-1507 333 0
-1508 -334 0
1508 334 0
1509 -337 0
-1509 337 0
1510 -338 0
-1510 338 0
-1511 -340 0
1511 340 0
1512 -343 0
-1512 343 0
1513 -344 0
-1513 344 0
1514 -346 0
-1514 346 0
-1515 -348 0
1515 348 0
1516 -350 0
-1516 350 0
1517 -351 0
-1517 351 0
1518 -353 0
-1518 353 0
1519 -354 0
-1519 354 0
-1520 -355 0
1520 355 0
-1521 -356 0
1521 356 0
1522 -358 0
-1522 358 0
1523 -359 0
-1523 359 0
1524 -361 0
-1524 361 0
1525 -362 0
-1525 362 0
-1526 -363 0
1526 363 0
1527 -365 0
-1527 365 0
1528 -368 0
-1528 368 0
1529 -369 0
-1529 369 0
-1530 -370 0
1530 370 0
-1531 -371 0
1531 371 0
-1532 -372 0
1532 372 0
-1533 -373 0
1533 373 0
-1534 -374 0
1534 374 0
1535 -375 0
-1535 375 0
1536 -376 0
-1536 376 0
1537 -377 0
-1537 377 0
1538 -378 0
-1538 378 0
-1539 -379 0
1539 379 0
1540 -380 0
-1540 380 0
1541 -381 0
-1541 381 0
1542 -382 0
-1542 382 0
1543 -383 0
-1543 383 0
-1544 -384 0
1544 384 0
-1545 -385 0
1545 385 0
1546 -386 0
-1546 386 0
1547 -387 0
-1547 387 0
1548 -388 0
-1548 388 0
1549 -389 0
-1549 389 0
-1550 -390 0
1550 390 0
1551 -391 0
-1551 391 0
1552 -392 0
-1552 392 0
1553 -393 0
-1553 393 0
1554 -394 0
-1554 394 0
-1555 -395 0
1555 395 0
-1556 -396 0
1556 396 0
-1557 -397 0
1557 397 0
1558 -398 0
-1558 398 0
1559 -399 0
-1559 399 0
1560 -400 0
-1560 400 0
1561 -401 0
-1561 401 0
-1562 -402 0
1562 402 0
1563 -403 0
-1563 403 0
1564 -404 0
-1564 404 0
1565 -405 0
-1565 405 0
1566 -406 0
-1566 406 0
-1567 -407 0
1567 407 0
-1568 -408 0
1568 408 0
1569 -409 0
-1569 409 0
1570 -410 0
-1570 410 0
1571 -412 0
-1571 412 0
1572 -413 0
-1572 413 0
-1573 -414 0
1573 414 0
1574 -415 0
-1574 415 0
1575 -416 0
-1575 416 0
1576 -417 0
-1576 417 0
1577 -418 0
-1577 418 0
-1578 -419 0
1578 419 0
-1579 -420 0
1579 420 0
-1580 -421 0
1580 421 0
-1581 -422 0
1581 422 0
1582 -424 0
-1582 424 0
1583 -425 0
-1583 425 0
1457 -426 0
-1457 426 0
1584 -427 0
-1584 427 0
-1585 -428 0
1585 428 0
1458 -429 0
-1458 429 0
1586 -430 0
-1586 430 0
1459 -431 0
-1459 431 0
1587 -432 0
-1587 432 0
-1588 -433 0
1588 433 0
-1589 -434 0
1589 434 0
1504 -435 0
-1504 435 0
1590 -436 0
-1590 436 0
1506 -437 0
-1506 437 0
1591 -438 0
-1591 438 0
-1592 -439 0
1592 439 0
1593 -441 0
-1593 441 0
1594 -442 0
-1594 442 0
1509 -443 0
-1509 443 0
1595 -444 0
-1595 444 0
-1596 -445 0
1596 445 0
-1597 -446 0
1597 446 0
-1598 -447 0
1598 447 0
1512 -448 0
-1512 448 0
1599 -449 0
-1599 449 0
1514 -450 0
-1514 450 0
1600 -451 0
-1600 451 0
-1601 -452 0
1601 452 0
1516 -453 0
-1516 453 0
1602 -454 0
-1602 454 0
1518 -455 0
-1518 455 0
1603 -456 0
-1603 456 0
-1604 -457 0
1604 457 0
-1605 -458 0
1605 458 0
1522 -459 0
-1522 459 0
1606 -460 0
-1606 460 0
1524 -461 0
-1524 461 0
1607 -462 0
-1607 462 0
-1608 -463 0
1608 463 0
1527 -464 0
-1527 464 0
1609 -465 0
-1609 465 0
1528 -466 0
-1528 466 0
1610 -467 0
-1610 467 0
-1611 -468 0
1611 468 0
-1612 -469 0
1612 469 0
-1613 -470 0
1613 470 0
-1614 -471 0
1614 471 0
-1615 -472 0
1615 472 0
1415 -474 0
-1415 474 0
474 0
-474 262 473 0
-262 259 -261 0
-259 256 -258 0
-256 252 -255 0
-252 249 -251 0
-249 244 -248 0
-244 241 -243 0
-241 236 -240 0
-236 232 -235 0
-232 229 -231 0
-229 224 -228 0
-224 221 -223 0
-221 217 -220 0
-217 214 -216 0
-214 210 -213 0
-210 205 -209 0
-205 201 -204 0
-201 197 -200 0
-197 194 -196 0
-194 190 -193 0
-190 186 -189 0
-186 182 -185 0
-182 178 -181 0
-178 174 -177 0
-174 170 -173 0
-170 166 -169 0
-166 162 -165 0
-162 158 -161 0
-158 154 -157 0
-154 150 -153 0
-150 146 -149 0
-146 142 -145 0
-142 138 -141 0
-138 134 -137 0
-134 131 -133 0
-131 128 -130 0
-128 124 -127 0
-124 121 -123 0
-121 118 -120 0
-118 115 -117 0
-115 111 -114 0
-111 107 -110 0
-107 103 -106 0
-103 99 -102 0
-99 95 -98 0
-95 91 -94 0
-91 87 -90 0
-87 83 -86 0
-83 79 -82 0
-79 75 -78 0
-75 71 -74 0
-71 67 -70 0
-67 63 -66 0
-63 59 -62 0
-59 55 -58 0
-55 51 -54 0
-51 47 -50 0
-47 43 -46 0
-43 39 -42 0
-39 35 -38 0
-35 31 -34 0
-31 27 -30 0
-27 23 -26 0
-23 19 -22 0
-19 15 -18 0
-15 11 -14 0
-11 7 -10 0
-7 -3 -6 0
1 -2 3 0
-1 2 3 0
4 -5 6 0
-4 5 6 0
8 -9 10 0
-8 9 10 0
12 13 14 0
-12 -13 14 0
-4 -8 13 0
-13 4 0
-13 8 0
16 -17 18 0
-16 17 18 0
20 -21 22 0
-20 21 22 0
24 25 26 0
-24 -25 26 0
-16 -20 25 0
-25 16 0
-25 20 0
28 29 30 0
-28 -29 30 0
-12 -24 29 0
-29 12 0
-29 24 0
32 33 34 0
-32 -33 34 0
-5 -8 33 0
-33 5 0
-33 8 0
36 37 38 0
-36 -37 38 0
-32 -24 37 0
-37 32 0
-37 24 0
40 41 42 0
-40 -41 42 0
-4 -9 41 0
-41 4 0
-41 9 0
44 45 46 0
-44 -45 46 0
-40 -24 45 0
-45 40 0
-45 24 0
48 49 50 0
-48 -49 50 0
-5 -9 49 0
-49 5 0
-49 9 0
52 53 54 0
-52 -53 54 0
-48 -24 53 0
-53 48 0
-53 24 0
56 57 58 0
-56 -57 58 0
-17 -20 57 0
-57 17 0
-57 20 0
60 61 62 0
-60 -61 62 0
-12 -56 61 0
-61 12 0
-61 56 0
64 65 66 0
-64 -65 66 0
-32 -56 65 0
-65 32 0
-65 56 0
68 69 70 0
-68 -69 70 0
-40 -56 69 0
-69 40 0
-69 56 0
72 73 74 0
-72 -73 74 0
-48 -56 73 0
-73 48 0
-73 56 0
76 77 78 0
-76 -77 78 0
-16 -21 77 0
-77 16 0
-77 21 0
80 81 82 0
-80 -81 82 0
-12 -76 81 0
-81 12 0
-81 76 0
84 85 86 0
-84 -85 86 0
-32 -76 85 0
-85 32 0
-85 76 0
88 89 90 0
-88 -89 90 0
-40 -76 89 0
-89 40 0
-89 76 0
92 93 94 0
-92 -93 94 0
-48 -76 93 0
-93 48 0
-93 76 0
96 97 98 0
-96 -97 98 0
-17 -21 97 0
-97 17 0
-97 21 0
100 101 102 0
-100 -101 102 0
-12 -96 101 0
-101 12 0
-101 96 0
104 105 106 0
-104 -105 106 0
-32 -96 105 0
-105 32 0
-105 96 0
108 109 110 0
-108 -109 110 0
-40 -96 109 0
-109 40 0
-109 96 0
112 113 114 0
-112 -113 114 0
-48 -96 113 0
-113 48 0
-113 96 0
116 -2 117 0
-116 2 117 0
119 -5 120 0
-119 5 120 0
122 -9 123 0
-122 9 123 0
125 126 127 0
-125 -126 127 0
-119 -122 126 0
-126 119 0
-126 122 0
129 -17 130 0
-129 17 130 0
132 -21 133 0
-132 21 133 0
135 136 137 0
-135 -136 137 0
-129 -132 136 0
-136 129 0
-136 132 0
139 140 141 0
-139 -140 141 0
-125 -135 140 0
-140 125 0
-140 135 0
143 144 145 0
-143 -144 145 0
-5 -122 144 0
-144 5 0
-144 122 0
147 148 149 0
-147 -148 149 0
-143 -135 148 0
-148 143 0
-148 135 0
151 152 153 0
-151 -152 153 0
-119 -9 152 0
-152 119 0
-152 9 0
155 156 157 0
-155 -156 157 0
-151 -135 156 0
-156 151 0
-156 135 0
159 160 161 0
-159 -160 161 0
-5 -9 160 0
-160 5 0
-160 9 0
163 164 165 0
-163 -164 165 0
-159 -135 164 0
-164 159 0
-164 135 0
167 168 169 0
-167 -168 169 0
-17 -132 168 0
-168 17 0
-168 132 0
171 172 173 0
-171 -172 173 0
-125 -167 172 0
-172 125 0
-172 167 0
175 176 177 0
-175 -176 177 0
-143 -167 176 0
-176 143 0
-176 167 0
179 180 181 0
-179 -180 181 0
-151 -167 180 0
-180 151 0
-180 167 0
183 184 185 0
-183 -184 185 0
-159 -167 184 0
-184 159 0
-184 167 0
187 188 189 0
-187 -188 189 0
-129 -21 188 0
-188 129 0
-188 21 0
191 192 193 0
-191 -192 193 0
-125 -187 192 0
-192 125 0
-192 187 0
195 129 196 0
-195 -129 196 0
198 199 200 0
-198 -199 200 0
-151 -187 199 0
-199 151 0
-199 187 0
202 203 204 0
-202 -203 204 0
-159 -187 203 0
-203 159 0
-203 187 0
206 208 209 0
-206 -208 209 0
-125 -207 208 0
-208 125 0
-208 207 0
211 212 213 0
-211 -212 213 0
-143 -207 212 0
-212 143 0
-212 207 0
215 207 216 0
-215 -207 216 0
218 219 220 0
-218 -219 220 0
-159 -207 219 0
-219 159 0
-219 207 0
222 139 223 0
-222 -139 223 0
225 227 228 0
-225 -227 228 0
-2 -226 227 0
-227 2 0
-227 226 0
230 147 231 0
-230 -147 231 0
233 234 235 0
-233 -234 235 0
237 239 240 0
-237 -239 240 0
-2 -238 239 0
-239 2 0
-239 238 0
242 155 243 0
-242 -155 243 0
245 247 248 0
-245 -247 248 0
-2 -246 247 0
-247 2 0
-247 246 0
250 163 251 0
-250 -163 251 0
253 254 255 0
-253 -254 255 0
257 119 258 0
-257 -119 258 0
260 132 261 0
-260 -132 261 0
-473 -374 472 0
-473 374 -472 0
-374 326 373 0
-326 293 325 0
-293 277 292 0
-277 269 276 0
-269 265 268 0
-265 264 0
-265 139 0
-264 116 0
-264 263 0
-268 267 0
-268 147 0
-267 116 0
-267 266 0
-276 272 275 0
-272 271 0
-272 155 0
-271 116 0
-271 270 0
-275 274 0
-275 163 0
-274 116 0
-274 273 0
-292 284 291 0
-284 280 283 0
-280 279 0
-280 171 0
-279 116 0
-279 278 0
-283 282 0
-283 175 0
-282 116 0
-282 281 0
-291 287 290 0
-287 286 0
-287 179 0
-286 116 285 0
-290 289 0
-290 183 0
-289 116 0
-289 288 0
-325 309 324 0
-309 301 308 0
-301 296 300 0
-296 295 0
-296 191 0
-295 116 0
-295 294 0
-300 298 0
-300 299 0
-298 116 0
-298 297 0
-308 304 307 0
-304 303 0
-304 198 0
-303 116 0
-303 302 0
-307 306 0
-307 202 0
-306 116 0
-306 305 0
-324 315 323 0
-315 312 314 0
-312 311 0
-312 206 0
-311 116 0
-311 310 0
-314 313 0
-314 211 0
-323 319 322 0
-319 317 0
-319 318 0
-317 116 0
-317 316 0
-322 321 0
-322 218 0
-321 116 0
-321 320 0
-373 341 372 0
-341 327 340 0
-340 334 339 0
-334 330 333 0
-330 329 0
-330 171 0
-329 2 0
-329 328 0
-333 332 0
-333 175 0
-332 2 0
-332 331 0
-339 335 338 0
-338 337 0
-338 183 0
-337 2 0
-337 336 0
-372 356 371 0
-356 348 355 0
-348 344 347 0
-344 343 0
-344 191 0
-343 2 0
-343 342 0
-347 346 0
-347 299 0
-346 2 0
-346 345 0
-355 351 354 0
-351 350 0
-351 198 0
-350 2 0
-350 349 0
-354 353 0
-354 202 0
-353 2 0
-353 352 0
-371 363 370 0
-363 359 362 0
-359 358 0
-359 206 0
-358 2 0
-358 357 0
-362 361 0
-362 211 0
-361 2 0
-361 360 0
-370 366 369 0
-366 365 0
-366 318 0
-365 2 0
-365 364 0
-369 368 0
-369 218 0
-368 2 0
-368 367 0
-472 422 471 0
-422 397 421 0
-397 385 396 0
-385 379 384 0
-379 376 378 0
-376 375 0
-376 28 0
-375 1 0
-375 263 0
-378 377 0
-378 36 0
-377 1 0
-377 266 0
-384 381 383 0
-381 380 0
-381 44 0
-380 1 0
-380 270 0
-383 382 0
-383 52 0
-382 1 0
-382 273 0
-396 390 395 0
-390 387 389 0
-387 386 0
-387 60 0
-386 1 0
-386 278 0
-389 388 0
-389 64 0
-388 1 0
-388 281 0
-395 392 394 0
-392 391 0
-392 68 0
-391 1 0
-391 285 0
-394 393 0
-394 72 0
-393 1 0
-393 288 0
-421 408 420 0
-408 402 407 0
-402 399 401 0
-399 398 0
-399 80 0
-398 1 0
-398 294 0
-401 400 0
-401 84 0
-400 1 0
-400 297 0
-407 404 406 0
-404 403 0
-404 88 0
-403 1 0
-403 302 0
-406 405 0
-406 92 0
-405 1 0
-405 305 0
-420 414 419 0
-414 410 413 0
-410 409 0
-410 100 0
-409 1 0
-409 310 0
-413 412 0
-413 104 0
-412 1 0
-412 411 0
-419 416 418 0
-416 415 0
-416 108 0
-415 1 0
-415 316 0
-418 417 0
-418 112 0
-417 1 0
-417 320 0
-471 447 470 0
-447 434 446 0
-434 428 433 0
-428 425 427 0
-425 424 0
-425 28 0
-424 2 0
-424 423 0
-427 426 0
-427 36 0
-426 2 0
-426 226 0
-433 430 432 0
-430 429 0
-430 44 0
-429 2 0
-429 238 0
-432 431 0
-432 52 0
-431 2 0
-431 246 0
-446 439 445 0
-439 436 438 0
-436 435 0
-436 60 0
-435 2 0
-435 328 0
-438 437 0
-438 64 0
-437 2 0
-437 331 0
-445 442 444 0
-442 441 0
-442 68 0
-441 2 0
-441 440 0
-444 443 0
-444 72 0
-443 2 0
-443 336 0
-470 458 469 0
-458 452 457 0
-452 449 451 0
-449 448 0
-449 80 0
-448 2 0
-448 342 0
-451 450 0
-451 84 0
-450 2 0
-450 345 0
-457 454 456 0
-454 453 0
-454 88 0
-453 2 0
-453 349 0
-456 455 0
-456 92 0
-455 2 0
-455 352 0
-469 463 468 0
-463 460 462 0
-460 459 0
-460 100 0
-459 2 0
-459 357 0
-462 461 0
-462 104 0
-461 2 0
-461 360 0
-468 465 467 0
-465 464 0
-465 108 0
-464 2 0
-464 364 0
-467 466 0
-467 112 0
-466 2 0
-466 367 0
-326 373 374 0
326 -373 374 0
-326 -373 374 0
-293 325 326 0
293 -325 326 0
-293 -325 326 0
-277 292 293 0
277 -292 293 0
-277 -292 293 0
-269 276 277 0
269 -276 277 0
-269 -276 277 0
-265 268 269 0
265 -268 269 0
-265 -268 269 0
-264 -139 265 0
-116 -263 264 0
-267 -147 268 0
-116 -266 267 0
-272 275 276 0
272 -275 276 0
-272 -275 276 0
-271 -155 272 0
-116 -270 271 0
-274 -163 275 0
-116 -273 274 0
-284 291 292 0
284 -291 292 0
-284 -291 292 0
-280 283 284 0
280 -283 284 0
-280 -283 284 0
-279 -171 280 0
-116 -278 279 0
-282 -175 283 0
-116 -281 282 0
-287 290 291 0
287 -290 291 0
-287 -290 291 0
-286 -179 287 0
-116 285 286 0
116 -285 286 0
-116 -285 286 0
-289 -183 290 0
-116 -288 289 0
-309 324 325 0
309 -324 325 0
-309 -324 325 0
-301 308 309 0
301 -308 309 0
-301 -308 309 0
-296 300 301 0
296 -300 301 0
-296 -300 301 0
-295 -191 296 0
-116 -294 295 0
-298 -299 300 0
-116 -297 298 0
-304 307 308 0
304 -307 308 0
-304 -307 308 0
-303 -198 304 0
-116 -302 303 0
-306 -202 307 0
-116 -305 306 0
-315 323 324 0
315 -323 324 0
-315 -323 324 0
-312 314 315 0
312 -314 315 0
-312 -314 315 0
-311 -206 312 0
-116 -310 311 0
-313 -211 314 0
-319 322 323 0
319 -322 323 0
-319 -322 323 0
-317 -318 319 0
-116 -316 317 0
-321 -218 322 0
-116 -320 321 0
-341 372 373 0
341 -372 373 0
-341 -372 373 0
-327 340 341 0
327 -340 341 0
-327 -340 341 0
-334 339 340 0
334 -339 340 0
-334 -339 340 0
-330 333 334 0
330 -333 334 0
-330 -333 334 0
-329 -171 330 0
-2 -328 329 0
-332 -175 333 0
-2 -331 332 0
-335 338 339 0
335 -338 339 0
-335 -338 339 0
-337 -183 338 0
-2 -336 337 0
-356 371 372 0
356 -371 372 0
-356 -371 372 0
-348 355 356 0
348 -355 356 0
-348 -355 356 0
-344 347 348 0
344 -347 348 0
-344 -347 348 0
-343 -191 344 0
-2 -342 343 0
-346 -299 347 0
-2 -345 346 0
-351 354 355 0
351 -354 355 0
-351 -354 355 0
-350 -198 351 0
-2 -349 350 0
-353 -202 354 0
-2 -352 353 0
-363 370 371 0
363 -370 371 0
-363 -370 371 0
-359 362 363 0
359 -362 363 0
-359 -362 363 0
-358 -206 359 0
-2 -357 358 0
-361 -211 362 0
-2 -360 361 0
-366 369 370 0
366 -369 370 0
-366 -369 370 0
-365 -318 366 0
-2 -364 365 0
-368 -218 369 0
-2 -367 368 0
-422 471 472 0
422 -471 472 0
-422 -471 472 0
-397 421 422 0
397 -421 422 0
-397 -421 422 0
-385 396 397 0
385 -396 397 0
-385 -396 397 0
-379 384 385 0
379 -384 385 0
-379 -384 385 0
-376 378 379 0
376 -378 379 0
-376 -378 379 0
-375 -28 376 0
-1 -263 375 0
-377 -36 378 0
-1 -266 377 0
-381 383 384 0
381 -383 384 0
-381 -383 384 0
-380 -44 381 0
-1 -270 380 0
-382 -52 383 0
-1 -273 382 0
-390 395 396 0
390 -395 396 0
-390 -395 396 0
-387 389 390 0
387 -389 390 0
-387 -389 390 0
-386 -60 387 0
-1 -278 386 0
-388 -64 389 0
-1 -281 388 0
-392 394 395 0
392 -394 395 0
-392 -394 395 0
-391 -68 392 0
-1 -285 391 0
-393 -72 394 0
-1 -288 393 0
-408 420 421 0
408 -420 421 0
-408 -420 421 0
-402 407 408 0
402 -407 408 0
-402 -407 408 0
-399 401 402 0
399 -401 402 0
-399 -401 402 0
-398 -80 399 0
-1 -294 398 0
-400 -84 401 0
-1 -297 400 0
-404 406 407 0
404 -406 407 0
-404 -406 407 0
-403 -88 404 0
-1 -302 403 0
-405 -92 406 0
-1 -305 405 0
-414 419 420 0
414 -419 420 0
-414 -419 420 0
-410 413 414 0
410 -413 414 0
-410 -413 414 0
-409 -100 410 0
-1 -310 409 0
-412 -104 413 0
-1 -411 412 0
-416 418 419 0
416 -418 419 0
-416 -418 419 0
-415 -108 416 0
-1 -316 415 0
-417 -112 418 0
-1 -320 417 0
-447 470 471 0
447 -470 471 0
-447 -470 471 0
-434 446 447 0
434 -446 447 0
-434 -446 447 0
-428 433 434 0
428 -433 434 0
-428 -433 434 0
-425 427 428 0
425 -427 428 0
-425 -427 428 0
-424 -28 425 0
-2 -423 424 0
-426 -36 427 0
-2 -226 426 0
-430 432 433 0
430 -432 433 0
-430 -432 433 0
-429 -44 430 0
-2 -238 429 0
-431 -52 432 0
-2 -246 431 0
-439 445 446 0
439 -445 446 0
-439 -445 446 0
-436 438 439 0
436 -438 439 0
-436 -438 439 0
-435 -60 436 0
-2 -328 435 0
-437 -64 438 0
-2 -331 437 0
-442 444 445 0
442 -444 445 0
-442 -444 445 0
-441 -68 442 0
-2 -440 441 0
-443 -72 444 0
-2 -336 443 0
-458 469 470 0
458 -469 470 0
-458 -469 470 0
-452 457 458 0
452 -457 458 0
-452 -457 458 0
-449 451 452 0
449 -451 452 0
-449 -451 452 0
-448 -80 449 0
-2 -342 448 0
-450 -84 451 0
-2 -345 450 0
-454 456 457 0
454 -456 457 0
-454 -456 457 0
-453 -88 454 0
-2 -349 453 0
-455 -92 456 0
-2 -352 455 0
-463 468 469 0
463 -468 469 0
-463 -468 469 0
-460 462 463 0
460 -462 463 0
-460 -462 463 0
-459 -100 460 0
-2 -357 459 0
-461 -104 462 0
-2 -360 461 0
-465 467 468 0
465 -467 468 0
-465 -467 468 0
-464 -108 465 0
-2 -364 464 0
-466 -112 467 0
-2 -367 466 0
1415 0
4 -1416 0
8 -1416 0
-4 -8 1416 0
20 -1417 0
16 -1417 0
-20 -16 1417 0
24 -1418 0
12 -1418 0
-24 -12 1418 0
8 -1419 0
5 -1419 0
-8 -5 1419 0
32 -1420 0
24 -1420 0
-32 -24 1420 0
4 -1421 0
9 -1421 0
-4 -9 1421 0
40 -1422 0
24 -1422 0
-40 -24 1422 0
5 -1423 0
9 -1423 0
-5 -9 1423 0
48 -1424 0
24 -1424 0
-48 -24 1424 0
20 -1425 0
17 -1425 0
-20 -17 1425 0
56 -1426 0
12 -1426 0
-56 -12 1426 0
56 -1427 0
32 -1427 0
-56 -32 1427 0
56 -1428 0
40 -1428 0
-56 -40 1428 0
56 -1429 0
48 -1429 0
-56 -48 1429 0
16 -1430 0
21 -1430 0
-16 -21 1430 0
12 -1431 0
76 -1431 0
-12 -76 1431 0
32 -1432 0
76 -1432 0
-32 -76 1432 0
40 -1433 0
76 -1433 0
-40 -76 1433 0
48 -1434 0
76 -1434 0
-48 -76 1434 0
21 -1435 0
17 -1435 0
-21 -17 1435 0
12 -1436 0
96 -1436 0
-12 -96 1436 0
32 -1437 0
96 -1437 0
-32 -96 1437 0
40 -1438 0
96 -1438 0
-40 -96 1438 0
48 -1439 0
96 -1439 0
-48 -96 1439 0
122 -1440 0
119 -1440 0
-122 -119 1440 0
129 -1441 0
132 -1441 0
-129 -132 1441 0
135 -1442 0
125 -1442 0
-135 -125 1442 0
5 -1443 0
122 -1443 0
-5 -122 1443 0
135 -1444 0
143 -1444 0
-135 -143 1444 0
9 -1445 0
119 -1445 0
-9 -119 1445 0
151 -1446 0
135 -1446 0
-151 -135 1446 0
159 -1447 0
135 -1447 0
-159 -135 1447 0
17 -1448 0
132 -1448 0
-17 -132 1448 0
167 -1449 0
125 -1449 0
-167 -125 1449 0
167 -1450 0
143 -1450 0
-167 -143 1450 0
167 -1451 0
151 -1451 0
-167 -151 1451 0
167 -1452 0
159 -1452 0
-167 -159 1452 0
21 -1453 0
129 -1453 0
-21 -129 1453 0
187 -1454 0
125 -1454 0
-187 -125 1454 0
151 -1455 0
187 -1455 0
-151 -187 1455 0
159 -1456 0
187 -1456 0
-159 -187 1456 0
226 -1457 0
2 -1457 0
-226 -2 1457 0
238 -1458 0
2 -1458 0
-238 -2 1458 0
246 -1459 0
2 -1459 0
-246 -2 1459 0
263 -1460 0
116 -1460 0
-263 -116 1460 0
139 -1461 0
264 -1461 0
-139 -264 1461 0
266 -1462 0
116 -1462 0
-266 -116 1462 0
147 -1463 0
267 -1463 0
-147 -267 1463 0
-265 -1464 0
-268 -1464 0
265 268 1464 0
270 -1465 0
116 -1465 0
-270 -116 1465 0
155 -1466 0
271 -1466 0
-155 -271 1466 0
273 -1467 0
116 -1467 0
-273 -116 1467 0
163 -1468 0
274 -1468 0
-163 -274 1468 0
-272 -1469 0
-275 -1469 0
272 275 1469 0
-269 -1470 0
-276 -1470 0
269 276 1470 0
278 -1471 0
116 -1471 0
-278 -116 1471 0
171 -1472 0
279 -1472 0
-171 -279 1472 0
281 -1473 0
116 -1473 0
-281 -116 1473 0
175 -1474 0
282 -1474 0
-175 -282 1474 0
-280 -1475 0
-283 -1475 0
280 283 1475 0
-285 -1476 0
-116 -1476 0
285 116 1476 0
179 -1477 0
286 -1477 0
-179 -286 1477 0
288 -1478 0
116 -1478 0
-288 -116 1478 0
183 -1479 0
289 -1479 0
-183 -289 1479 0
-287 -1480 0
-290 -1480 0
287 290 1480 0
-284 -1481 0
1480 -1481 0
284 -1480 1481 0
-277 -1482 0
-284 -1482 0
277 284 1482 0
-291 -1483 0
1482 -1483 0
291 -1482 1483 0
294 -1484 0
116 -1484 0
-294 -116 1484 0
191 -1485 0
295 -1485 0
-191 -295 1485 0
297 -1486 0
116 -1486 0
-297 -116 1486 0
-296 -1487 0
-300 -1487 0
296 300 1487 0
302 -1488 0
116 -1488 0
-302 -116 1488 0
198 -1489 0
303 -1489 0
-198 -303 1489 0
305 -1490 0
116 -1490 0
-305 -116 1490 0
202 -1491 0
306 -1491 0
-202 -306 1491 0
-304 -1492 0
-307 -1492 0
304 307 1492 0
-301 -1493 0
-308 -1493 0
301 308 1493 0
310 -1494 0
116 -1494 0
-310 -116 1494 0
206 -1495 0
311 -1495 0
-206 -311 1495 0
-312 -1496 0
-314 -1496 0
312 314 1496 0
316 -1497 0
116 -1497 0
-316 -116 1497 0
320 -1498 0
116 -1498 0
-320 -116 1498 0
218 -1499 0
321 -1499 0
-218 -321 1499 0
-319 -1500 0
-322 -1500 0
319 322 1500 0
-315 -1501 0
-323 -1501 0
315 323 1501 0
-309 -1502 0
-324 -1502 0
309 324 1502 0
-293 -1503 0
1502 -1503 0
293 -1502 1503 0
328 -1504 0
2 -1504 0
-328 -2 1504 0
171 -1505 0
329 -1505 0
-171 -329 1505 0
331 -1506 0
2 -1506 0
-331 -2 1506 0
175 -1507 0
332 -1507 0
-175 -332 1507 0
-330 -1508 0
-333 -1508 0
330 333 1508 0
336 -1509 0
2 -1509 0
-336 -2 1509 0
183 -1510 0
337 -1510 0
-183 -337 1510 0
-334 -1511 0
-339 -1511 0
334 339 1511 0
342 -1512 0
2 -1512 0
-342 -2 1512 0
191 -1513 0
343 -1513 0
-191 -343 1513 0
345 -1514 0
2 -1514 0
-345 -2 1514 0
-344 -1515 0
-347 -1515 0
344 347 1515 0
349 -1516 0
2 -1516 0
-349 -2 1516 0
198 -1517 0
350 -1517 0
-198 -350 1517 0
352 -1518 0
2 -1518 0
-352 -2 1518 0
202 -1519 0
353 -1519 0
-202 -353 1519 0
-351 -1520 0
-354 -1520 0
351 354 1520 0
-348 -1521 0
-355 -1521 0
348 355 1521 0
357 -1522 0
2 -1522 0
-357 -2 1522 0
206 -1523 0
358 -1523 0
-206 -358 1523 0
360 -1524 0
2 -1524 0
-360 -2 1524 0
211 -1525 0
361 -1525 0
-211 -361 1525 0
-359 -1526 0
-362 -1526 0
359 362 1526 0
364 -1527 0
2 -1527 0
-364 -2 1527 0
367 -1528 0
2 -1528 0
-367 -2 1528 0
218 -1529 0
368 -1529 0
-218 -368 1529 0
-366 -1530 0
-369 -1530 0
366 369 1530 0
-363 -1531 0
-370 -1531 0
363 370 1531 0
-356 -1532 0
1531 -1532 0
356 -1531 1532 0
-341 -1533 0
-372 -1533 0
341 372 1533 0
-326 -1534 0
1533 -1534 0
326 -1533 1534 0
1 -1535 0
263 -1535 0
-1 -263 1535 0
28 -1536 0
375 -1536 0
-28 -375 1536 0
1 -1537 0
266 -1537 0
-1 -266 1537 0
36 -1538 0
377 -1538 0
-36 -377 1538 0
-376 -1539 0
-378 -1539 0
376 378 1539 0
1 -1540 0
270 -1540 0
-1 -270 1540 0
44 -1541 0
380 -1541 0
-44 -380 1541 0
1 -1542 0
273 -1542 0
-1 -273 1542 0
52 -1543 0
382 -1543 0
-52 -382 1543 0
-381 -1544 0
-383 -1544 0
381 383 1544 0
-379 -1545 0
-384 -1545 0
379 384 1545 0
1 -1546 0
278 -1546 0
-1 -278 1546 0
60 -1547 0
386 -1547 0
-60 -386 1547 0
1 -1548 0
281 -1548 0
-1 -281 1548 0
64 -1549 0
388 -1549 0
-64 -388 1549 0
-387 -1550 0
-389 -1550 0
387 389 1550 0
1 -1551 0
285 -1551 0
-1 -285 1551 0
68 -1552 0
391 -1552 0
-68 -391 1552 0
1 -1553 0
288 -1553 0
-1 -288 1553 0
72 -1554 0
393 -1554 0
-72 -393 1554 0
-392 -1555 0
-394 -1555 0
392 394 1555 0
-390 -1556 0
-395 -1556 0
390 395 1556 0
-385 -1557 0
-396 -1557 0
385 396 1557 0
1 -1558 0
294 -1558 0
-1 -294 1558 0
80 -1559 0
398 -1559 0
-80 -398 1559 0
297 -1560 0
1 -1560 0
-297 -1 1560 0
84 -1561 0
400 -1561 0
-84 -400 1561 0
-399 -1562 0
-401 -1562 0
399 401 1562 0
302 -1563 0
1 -1563 0
-302 -1 1563 0
88 -1564 0
403 -1564 0
-88 -403 1564 0
305 -1565 0
1 -1565 0
-305 -1 1565 0
92 -1566 0
405 -1566 0
-92 -405 1566 0
-404 -1567 0
-406 -1567 0
404 406 1567 0
-402 -1568 0
-407 -1568 0
402 407 1568 0
310 -1569 0
1 -1569 0
-310 -1 1569 0
100 -1570 0
409 -1570 0
-100 -409 1570 0
411 -1571 0
1 -1571 0
-411 -1 1571 0
104 -1572 0
412 -1572 0
-104 -412 1572 0
-410 -1573 0
-413 -1573 0
410 413 1573 0
316 -1574 0
1 -1574 0
-316 -1 1574 0
108 -1575 0
415 -1575 0
-108 -415 1575 0
320 -1576 0
1 -1576 0
-320 -1 1576 0
112 -1577 0
417 -1577 0
-112 -417 1577 0
-416 -1578 0
-418 -1578 0
416 418 1578 0
-414 -1579 0
-419 -1579 0
414 419 1579 0
-408 -1580 0
-420 -1580 0
408 420 1580 0
-397 -1581 0
1580 -1581 0
397 -1580 1581 0
423 -1582 0
2 -1582 0
-423 -2 1582 0
28 -1583 0
424 -1583 0
-28 -424 1583 0
36 -1584 0
426 -1584 0
-36 -426 1584 0
-425 -1585 0
-427 -1585 0
425 427 1585 0
44 -1586 0
429 -1586 0
-44 -429 1586 0
52 -1587 0
431 -1587 0
-52 -431 1587 0
-430 -1588 0
-432 -1588 0
430 432 1588 0
-428 -1589 0
-433 -1589 0
428 433 1589 0
60 -1590 0
435 -1590 0
-60 -435 1590 0
64 -1591 0
437 -1591 0
-64 -437 1591 0
-436 -1592 0
-438 -1592 0
436 438 1592 0
440 -1593 0
2 -1593 0
-440 -2 1593 0
68 -1594 0
441 -1594 0
-68 -441 1594 0
72 -1595 0
443 -1595 0
-72 -443 1595 0
-442 -1596 0
-444 -1596 0
442 444 1596 0
-439 -1597 0
-445 -1597 0
439 445 1597 0
-434 -1598 0
-446 -1598 0
434 446 1598 0
80 -1599 0
448 -1599 0
-80 -448 1599 0
84 -1600 0
450 -1600 0
-84 -450 1600 0
-449 -1601 0
-451 -1601 0
449 451 1601 0
88 -1602 0
453 -1602 0
-88 -453 1602 0
92 -1603 0
455 -1603 0
-92 -455 1603 0
-454 -1604 0
-456 -1604 0
454 456 1604 0
-452 -1605 0
-457 -1605 0
452 457 1605 0
100 -1606 0
459 -1606 0
-100 -459 1606 0
104 -1607 0
461 -1607 0
-104 -461 1607 0
-460 -1608 0
-462 -1608 0
460 462 1608 0
108 -1609 0
464 -1609 0
-108 -464 1609 0
112 -1610 0
466 -1610 0
-112 -466 1610 0
-465 -1611 0
-467 -1611 0
465 467 1611 0
-463 -1612 0
-468 -1612 0
463 468 1612 0
-458 -1613 0
-469 -1613 0
458 469 1613 0
-447 -1614 0
-470 -1614 0
447 470 1614 0
-422 -1615 0
1614 -1615 0
422 -1614 1615 0
